c cksystemsgroup.github.io/unicorn
c CNF contains a total of 476 clauses.
c CNF contains a total of 239 variables.
c CNF clauses cover 1 bad states.
c Variable name mapping (97 names):
c   1: input[bit=47]
c   2: input[bit=47]
c   5: input[bit=46]
c   6: input[bit=46]
c   9: input[bit=45]
c   10: input[bit=45]
c   13: input[bit=44]
c   14: input[bit=44]
c   17: input[bit=43]
c   18: input[bit=43]
c   21: input[bit=42]
c   22: input[bit=42]
c   25: input[bit=41]
c   26: input[bit=41]
c   29: input[bit=40]
c   30: input[bit=40]
c   33: input[bit=39]
c   34: input[bit=39]
c   37: input[bit=38]
c   38: input[bit=38]
c   41: input[bit=37]
c   42: input[bit=37]
c   45: input[bit=36]
c   46: input[bit=36]
c   49: input[bit=35]
c   50: input[bit=35]
c   53: input[bit=34]
c   54: input[bit=34]
c   57: input[bit=33]
c   58: input[bit=33]
c   61: input[bit=32]
c   62: input[bit=32]
c   65: input[bit=31]
c   66: input[bit=31]
c   69: input[bit=30]
c   70: input[bit=30]
c   73: input[bit=29]
c   74: input[bit=29]
c   77: input[bit=28]
c   78: input[bit=28]
c   81: input[bit=27]
c   82: input[bit=27]
c   85: input[bit=26]
c   86: input[bit=26]
c   89: input[bit=25]
c   90: input[bit=25]
c   93: input[bit=24]
c   94: input[bit=24]
c   97: input[bit=23]
c   98: input[bit=23]
c   101: input[bit=22]
c   102: input[bit=22]
c   105: input[bit=21]
c   106: input[bit=21]
c   109: input[bit=20]
c   110: input[bit=20]
c   113: input[bit=19]
c   114: input[bit=19]
c   117: input[bit=18]
c   118: input[bit=18]
c   121: input[bit=17]
c   122: input[bit=17]
c   125: input[bit=16]
c   126: input[bit=16]
c   129: input[bit=15]
c   130: input[bit=15]
c   133: input[bit=14]
c   134: input[bit=14]
c   137: input[bit=13]
c   138: input[bit=13]
c   141: input[bit=12]
c   142: input[bit=12]
c   145: input[bit=11]
c   146: input[bit=11]
c   149: input[bit=10]
c   150: input[bit=10]
c   153: input[bit=9]
c   154: input[bit=9]
c   157: input[bit=8]
c   158: input[bit=8]
c   161: input[bit=7]
c   162: input[bit=7]
c   165: input[bit=6]
c   166: input[bit=6]
c   169: input[bit=5]
c   170: input[bit=5]
c   173: input[bit=4]
c   174: input[bit=4]
c   177: input[bit=3]
c   178: input[bit=3]
c   181: input[bit=2]
c   182: input[bit=2]
c   185: input[bit=1]
c   186: input[bit=1]
c   189: input[bit=0]
c   190: input[bit=0]
c   239: ?
p cnf 239 476
-1 -2 3 0
1 -3 0
2 -3 0
4 0
-5 -6 7 0
5 -7 0
6 -7 0
8 0
-9 -10 11 0
9 -11 0
10 -11 0
12 0
-13 -14 15 0
13 -15 0
14 -15 0
16 0
-17 -18 19 0
17 -19 0
18 -19 0
20 0
-21 -22 23 0
21 -23 0
22 -23 0
24 0
-25 -26 27 0
25 -27 0
26 -27 0
28 0
-29 -30 31 0
29 -31 0
30 -31 0
32 0
-33 -34 35 0
33 -35 0
34 -35 0
36 0
-37 -38 39 0
37 -39 0
38 -39 0
40 0
-41 -42 43 0
41 -43 0
42 -43 0
44 0
-45 -46 47 0
45 -47 0
46 -47 0
48 0
-49 -50 51 0
49 -51 0
50 -51 0
52 0
-53 -54 55 0
53 -55 0
54 -55 0
56 0
-57 -58 59 0
57 -59 0
58 -59 0
60 0
-61 -62 63 0
61 -63 0
62 -63 0
64 0
-65 -66 67 0
65 -67 0
66 -67 0
68 0
-69 -70 71 0
69 -71 0
70 -71 0
72 0
-73 -74 75 0
73 -75 0
74 -75 0
76 0
-77 -78 79 0
77 -79 0
78 -79 0
80 0
-81 -82 83 0
81 -83 0
82 -83 0
84 0
-85 -86 87 0
85 -87 0
86 -87 0
88 0
-89 -90 91 0
89 -91 0
90 -91 0
92 0
-93 -94 95 0
93 -95 0
94 -95 0
96 0
-97 -98 99 0
97 -99 0
98 -99 0
-100 0
-101 -102 103 0
101 -103 0
102 -103 0
-104 0
-105 -106 107 0
105 -107 0
106 -107 0
-108 0
-109 -110 111 0
109 -111 0
110 -111 0
-112 0
-113 -114 115 0
113 -115 0
114 -115 0
116 0
-117 -118 119 0
117 -119 0
118 -119 0
120 0
-121 -122 123 0
121 -123 0
122 -123 0
124 0
-125 -126 127 0
125 -127 0
126 -127 0
128 0
-129 -130 131 0
129 -131 0
130 -131 0
132 0
-133 -134 135 0
133 -135 0
134 -135 0
136 0
-137 -138 139 0
137 -139 0
138 -139 0
-140 0
-141 -142 143 0
141 -143 0
142 -143 0
144 0
-145 -146 147 0
145 -147 0
146 -147 0
148 0
-149 -150 151 0
149 -151 0
150 -151 0
152 0
-153 -154 155 0
153 -155 0
154 -155 0
156 0
-157 -158 159 0
157 -159 0
158 -159 0
160 0
-161 -162 163 0
161 -163 0
162 -163 0
164 0
-165 -166 167 0
165 -167 0
166 -167 0
168 0
-169 -170 171 0
169 -171 0
170 -171 0
172 0
-173 -174 175 0
173 -175 0
174 -175 0
176 0
-177 -178 179 0
177 -179 0
178 -179 0
180 0
-181 -182 183 0
181 -183 0
182 -183 0
184 0
-185 -186 187 0
185 -187 0
186 -187 0
-188 0
-189 -190 191 0
189 -191 0
190 -191 0
187 188 -192 0
187 191 -192 0
-188 -191 192 0
188 191 -192 0
-187 -191 192 0
-187 -188 192 0
183 184 -193 0
183 192 -193 0
-184 -192 193 0
184 192 -193 0
-183 -192 193 0
-183 -184 193 0
179 180 -194 0
179 193 -194 0
-180 -193 194 0
180 193 -194 0
-179 -193 194 0
-179 -180 194 0
175 176 -195 0
175 194 -195 0
-176 -194 195 0
176 194 -195 0
-175 -194 195 0
-175 -176 195 0
171 172 -196 0
171 195 -196 0
-172 -195 196 0
172 195 -196 0
-171 -195 196 0
-171 -172 196 0
167 168 -197 0
167 196 -197 0
-168 -196 197 0
168 196 -197 0
-167 -196 197 0
-167 -168 197 0
163 164 -198 0
163 197 -198 0
-164 -197 198 0
164 197 -198 0
-163 -197 198 0
-163 -164 198 0
159 160 -199 0
159 198 -199 0
-160 -198 199 0
160 198 -199 0
-159 -198 199 0
-159 -160 199 0
155 156 -200 0
155 199 -200 0
-156 -199 200 0
156 199 -200 0
-155 -199 200 0
-155 -156 200 0
151 152 -201 0
151 200 -201 0
-152 -200 201 0
152 200 -201 0
-151 -200 201 0
-151 -152 201 0
147 148 -202 0
147 201 -202 0
-148 -201 202 0
148 201 -202 0
-147 -201 202 0
-147 -148 202 0
143 144 -203 0
143 202 -203 0
-144 -202 203 0
144 202 -203 0
-143 -202 203 0
-143 -144 203 0
139 140 -204 0
139 203 -204 0
-140 -203 204 0
140 203 -204 0
-139 -203 204 0
-139 -140 204 0
135 136 -205 0
135 204 -205 0
-136 -204 205 0
136 204 -205 0
-135 -204 205 0
-135 -136 205 0
131 132 -206 0
131 205 -206 0
-132 -205 206 0
132 205 -206 0
-131 -205 206 0
-131 -132 206 0
127 128 -207 0
127 206 -207 0
-128 -206 207 0
128 206 -207 0
-127 -206 207 0
-127 -128 207 0
123 124 -208 0
123 207 -208 0
-124 -207 208 0
124 207 -208 0
-123 -207 208 0
-123 -124 208 0
119 120 -209 0
119 208 -209 0
-120 -208 209 0
120 208 -209 0
-119 -208 209 0
-119 -120 209 0
115 116 -210 0
115 209 -210 0
-116 -209 210 0
116 209 -210 0
-115 -209 210 0
-115 -116 210 0
111 112 -211 0
111 210 -211 0
-112 -210 211 0
112 210 -211 0
-111 -210 211 0
-111 -112 211 0
107 108 -212 0
107 211 -212 0
-108 -211 212 0
108 211 -212 0
-107 -211 212 0
-107 -108 212 0
103 104 -213 0
103 212 -213 0
-104 -212 213 0
104 212 -213 0
-103 -212 213 0
-103 -104 213 0
99 100 -214 0
99 213 -214 0
-100 -213 214 0
100 213 -214 0
-99 -213 214 0
-99 -100 214 0
95 96 -215 0
95 214 -215 0
-96 -214 215 0
96 214 -215 0
-95 -214 215 0
-95 -96 215 0
91 92 -216 0
91 215 -216 0
-92 -215 216 0
92 215 -216 0
-91 -215 216 0
-91 -92 216 0
87 88 -217 0
87 216 -217 0
-88 -216 217 0
88 216 -217 0
-87 -216 217 0
-87 -88 217 0
83 84 -218 0
83 217 -218 0
-84 -217 218 0
84 217 -218 0
-83 -217 218 0
-83 -84 218 0
79 80 -219 0
79 218 -219 0
-80 -218 219 0
80 218 -219 0
-79 -218 219 0
-79 -80 219 0
75 76 -220 0
75 219 -220 0
-76 -219 220 0
76 219 -220 0
-75 -219 220 0
-75 -76 220 0
71 72 -221 0
71 220 -221 0
-72 -220 221 0
72 220 -221 0
-71 -220 221 0
-71 -72 221 0
67 68 -222 0
67 221 -222 0
-68 -221 222 0
68 221 -222 0
-67 -221 222 0
-67 -68 222 0
63 64 -223 0
63 222 -223 0
-64 -222 223 0
64 222 -223 0
-63 -222 223 0
-63 -64 223 0
59 60 -224 0
59 223 -224 0
-60 -223 224 0
60 223 -224 0
-59 -223 224 0
-59 -60 224 0
55 56 -225 0
55 224 -225 0
-56 -224 225 0
56 224 -225 0
-55 -224 225 0
-55 -56 225 0
51 52 -226 0
51 225 -226 0
-52 -225 226 0
52 225 -226 0
-51 -225 226 0
-51 -52 226 0
47 48 -227 0
47 226 -227 0
-48 -226 227 0
48 226 -227 0
-47 -226 227 0
-47 -48 227 0
43 44 -228 0
43 227 -228 0
-44 -227 228 0
44 227 -228 0
-43 -227 228 0
-43 -44 228 0
39 40 -229 0
39 228 -229 0
-40 -228 229 0
40 228 -229 0
-39 -228 229 0
-39 -40 229 0
35 36 -230 0
35 229 -230 0
-36 -229 230 0
36 229 -230 0
-35 -229 230 0
-35 -36 230 0
31 32 -231 0
31 230 -231 0
-32 -230 231 0
32 230 -231 0
-31 -230 231 0
-31 -32 231 0
27 28 -232 0
27 231 -232 0
-28 -231 232 0
28 231 -232 0
-27 -231 232 0
-27 -28 232 0
23 24 -233 0
23 232 -233 0
-24 -232 233 0
24 232 -233 0
-23 -232 233 0
-23 -24 233 0
19 20 -234 0
19 233 -234 0
-20 -233 234 0
20 233 -234 0
-19 -233 234 0
-19 -20 234 0
15 16 -235 0
15 234 -235 0
-16 -234 235 0
16 234 -235 0
-15 -234 235 0
-15 -16 235 0
11 12 -236 0
11 235 -236 0
-12 -235 236 0
12 235 -236 0
-11 -235 236 0
-11 -12 236 0
7 8 -237 0
7 236 -237 0
-8 -236 237 0
8 236 -237 0
-7 -236 237 0
-7 -8 237 0
3 4 -238 0
3 237 -238 0
-4 -237 238 0
4 237 -238 0
-3 -237 238 0
-3 -4 238 0
-238 -239 0
238 239 0
239 0
